(set-info :origin "driver benchmark extracted from Microsoft SDV")
(set-logic HORN)
(declare-fun Proc44 (Int Int Int Int Int Bool) Bool)
(declare-fun Proc14 (Int Int Int Int Int Bool Int Int) Bool)
(declare-fun Proc19 (Int Int Int Int Int Bool Int Int Int) Bool)
(declare-fun Proc33 (Int Int Int Int Int Bool Int) Bool)
(declare-fun Proc29 (Int Int Int Int Int Bool Int) Bool)
(declare-fun Proc12 (Int Int Int Int Int Bool Int Int Int) Bool)
(declare-fun Proc18 (Int Int Int Int Int Bool Int Int Int) Bool)
(declare-fun Proc31 (Int Int Int Int Int Bool Int) Bool)
(declare-fun Proc22 (Int Int Int Int Int Bool Int) Bool)
(declare-fun Proc40 (Int Int Int Int Int Bool Int) Bool)
(declare-fun Proc7 (Int Int Int Int Int Bool Int Int Int Int) Bool)
(declare-fun Proc9 (Int Int Int Int Int Bool Int) Bool)
(declare-fun Proc4 (Int Int Int Int Int Bool Int Int Int) Bool)
(declare-fun Proc16 (Int Int Int Int Int Bool Int Int) Bool)
(declare-fun Proc36 (Int Int Int Int Int Bool Int) Bool)
(declare-fun Proc11 (Int Int Int Int Int Bool Int Int Int Int) Bool)
(declare-fun Proc10 (Int Int Int Int Int Bool Int Int Int Int) Bool)
(declare-fun Proc25 (Int Int Int Int Int Bool Int Int Int) Bool)
(declare-fun Proc21 (Int Int Int Int Int Bool) Bool)
(declare-fun Proc24 (Int Int Int Int Int Bool Int) Bool)
(declare-fun Proc17 (Int Int Int Int Int Bool Int Int Int Int) Bool)
(declare-fun Proc23 (Int Int Int Int Int Bool Int Int Int) Bool)
(declare-fun Proc43 (Int Int Int Int Int Bool Int Int Int Int Int) Bool)
(declare-fun Proc34 (Int Int Int Int Int Bool Int) Bool)
(declare-fun Proc41 (Int Int Int Int Int Bool) Bool)
(declare-fun Proc5 (Int Int Int Int Int Bool Int Int) Bool)
(declare-fun Proc1 (Int Int Int Int Int Bool Int) Bool)
(declare-fun Proc3 (Int Int Int Int Int Bool Int) Bool)
(declare-fun Proc45
             (Int Int Int Int Int Bool Int Bool Int Int Int Int Int)
             Bool)
(declare-fun Proc2 (Int Int Int Int Int Bool Int Int Int) Bool)
(declare-fun Proc26
             (Int Int Int Int Int Bool Int Int Int Int Int Bool Int)
             Bool)
(declare-fun Proc39 (Int Int Int Int Int Bool Int) Bool)
(declare-fun Proc8 (Int Int Int Int Int Bool Int Int Int) Bool)
(declare-fun Proc32 (Int Int Int Int Int Bool Int) Bool)
(declare-fun Proc13 (Int Int Int Int Int Bool) Bool)
(declare-fun Proc37 (Int Int Int Int Int Bool Int) Bool)
(declare-fun Proc15 (Int Int Int Int Int Bool Int Int Int Int Int) Bool)
(declare-fun Proc20 (Int Int Int Int Int Bool Int Int Int Int Int) Bool)
(declare-fun Proc42 (Int Int Int Int Int Bool Int Int) Bool)
(declare-fun Proc0 (Int Int Int Int Int Bool Int Int Int Int Int Int Int) Bool)
(declare-fun Proc6 (Int Int Int Int Int Bool Int Int Int Int) Bool)
(declare-fun Proc28 (Int Int Int Int Int Bool Int) Bool)
(declare-fun Proc30 (Int Int Int Int Int Bool Int) Bool)
(declare-fun Proc38 (Int Int Int Int Int Bool Int) Bool)
(declare-fun Proc35 (Int Int Int Int Int Bool Int) Bool)
(declare-fun Proc27 (Int Int Int Int Int Bool Int) Bool)
(assert (forall ((A Int)
         (B Int)
         (C Int)
         (D Int)
         (E Int)
         (F Int)
         (G Int)
         (H Int)
         (I Int)
         (J Int)
         (K Int)
         (L Int)
         (M Int)
         (N Int)
         (O Int)
         (P Int)
         (Q Bool))
  (let ((a!1 (or (not (and (= P O) (= N 0))) (not (and (= M N) (= L P)))))
        (a!2 (and (not (<= J (+ 1 K))) (not (<= J O)))))
  (let ((a!3 (or (not (= K O))
                 (not a!2)
                 (not (and (= P J) (= N K)))
                 (not (and (= M N) (= L P))))))
    (=> (not (or (not Q) (and a!1 a!3))) (Proc0 O I H G F Q E D C B A M L))))))
(assert (forall ((A Int) (B Int) (C Int) (D Int) (E Int) (F Int) (Q Bool))
  (=> Q (Proc1 F E D C B Q A))))
(assert (forall ((A Int)
         (B Int)
         (C Int)
         (D Int)
         (E Int)
         (F Int)
         (G Int)
         (H Int)
         (Q Bool))
  (=> Q (Proc2 H G F E D Q C B A))))
(assert (forall ((A Int) (B Int) (C Int) (D Int) (E Int) (F Int) (Q Bool))
  (=> Q (Proc3 F E D C B Q A))))
(assert (forall ((A Int)
         (B Int)
         (C Int)
         (D Int)
         (E Int)
         (F Int)
         (G Int)
         (H Int)
         (Q Bool))
  (=> Q (Proc4 H G F E D Q C B A))))
(assert (forall ((A Int)
         (B Int)
         (C Int)
         (D Int)
         (E Int)
         (F Int)
         (G Int)
         (H Int)
         (I Int)
         (J Int)
         (K Int)
         (L Int)
         (Q Bool))
  (let ((a!1 (and (not (<= J (+ 1 L))) (not (<= J K)))))
  (let ((a!2 (or (not Q)
                 (not (= L K))
                 (not a!1)
                 (not (Proc5 J I H G F Q L E))
                 (not (and (= D J) (= C E))))))
    (=> (not a!2) (Proc6 K I H G F Q B A D C))))))
(assert (forall ((A Int)
         (B Int)
         (C Int)
         (D Int)
         (E Int)
         (F Int)
         (G Int)
         (H Int)
         (I Int)
         (J Int)
         (K Int)
         (L Int)
         (Q Bool))
  (let ((a!1 (and (not (<= J (+ 1 L))) (not (<= J K)))))
  (let ((a!2 (or (not Q)
                 (not (= L K))
                 (not a!1)
                 (not (Proc5 J I H G F Q L E))
                 (not (and (= D J) (= C E))))))
    (=> (not a!2) (Proc7 K I H G F Q B A D C))))))
(assert (forall ((A Int)
         (B Int)
         (C Int)
         (D Int)
         (E Int)
         (F Int)
         (G Int)
         (H Int)
         (I Int)
         (J Int)
         (K Int)
         (Q Bool))
  (let ((a!1 (and (not (<= I (+ 1 K))) (not (<= I J)))))
  (let ((a!2 (or (not Q)
                 (not (= K J))
                 (not a!1)
                 (not (Proc5 I H G F E Q K D))
                 (not (and (= C I) (= B D))))))
    (=> (not a!2) (Proc8 J H G F E Q A C B))))))
(assert (forall ((A Int) (B Int) (C Int) (D Int) (E Int) (F Int) (G Int) (Q Bool))
  (let ((a!1 (not (or (not Q) (not (= G 1))))))
    (=> a!1 (Proc5 F E D C B Q A G)))))
(assert (forall ((A Int) (B Int) (C Int) (D Int) (E Int) (F Int) (Q Bool))
  (=> false (Proc9 F E D C B Q A))))
(assert (forall ((A Int)
         (B Int)
         (C Int)
         (D Int)
         (E Int)
         (F Int)
         (G Int)
         (H Int)
         (I Int)
         (J Int)
         (K Int)
         (L Int)
         (M Int)
         (Q Bool))
  (let ((a!1 (or (= M 2)
                 (not (and (= L K) (= J I)))
                 (not (and (= H L) (= G J)))))
        (a!2 (or (not (= F 259))
                 (not (and (= L K) (= J I)))
                 (not (and (= H L) (= G J)))))
        (a!3 (or (not (= A 1))
                 (not (and (= L B) (= J A)))
                 (not (and (= H L) (= G J)))))
        (a!4 (or (= A 1)
                 (not (and (= L B) (= J A)))
                 (not (and (= H L) (= G J))))))
  (let ((a!5 (and a!2
                  (or (= F 259) (not (Proc7 K E M D I Q C F B A)) (and a!3 a!4)))))
  (let ((a!6 (and a!1 (or (not (= M 2)) a!5))))
    (=> (not (or (not Q) a!6)) (Proc10 K E M D I Q C F H G)))))))
(assert (forall ((A Int)
         (B Int)
         (C Int)
         (D Int)
         (E Int)
         (F Int)
         (G Int)
         (H Int)
         (I Int)
         (J Int)
         (K Int)
         (L Int)
         (M Int)
         (Q Bool))
  (let ((a!1 (or (= M 2)
                 (not (and (= L K) (= J I)))
                 (not (and (= H L) (= G J)))))
        (a!2 (or (not (= F 259))
                 (not (and (= L K) (= J I)))
                 (not (and (= H L) (= G J)))))
        (a!3 (or (not (= A 1))
                 (not (and (= L B) (= J A)))
                 (not (and (= H L) (= G J)))))
        (a!4 (or (= A 1)
                 (not (and (= L B) (= J A)))
                 (not (and (= H L) (= G J))))))
  (let ((a!5 (and a!2
                  (or (= F 259) (not (Proc6 K E M D I Q C F B A)) (and a!3 a!4)))))
  (let ((a!6 (and a!1 (or (not (= M 2)) a!5))))
    (=> (not (or (not Q) a!6)) (Proc11 K E M D I Q C F H G)))))))
(assert (forall ((A Int)
         (B Int)
         (C Int)
         (D Int)
         (E Int)
         (F Int)
         (G Int)
         (H Int)
         (I Int)
         (J Int)
         (K Int)
         (L Int)
         (M Int)
         (N Int)
         (Q Bool))
  (let ((a!1 (or (not (= G 1))
                 (not (and (= F H) (= E G)))
                 (not (and (= D F) (= C E)))))
        (a!2 (or (= G 1)
                 (not (and (= F H) (= E G)))
                 (not (and (= D F) (= C E)))))
        (a!3 (and (not (<= A (+ 1 B))) (not (<= A M)))))
  (let ((a!4 (or (= N 1)
                 (not (= B M))
                 (not a!3)
                 (not (Proc9 A L N K J Q B))
                 (not (and (= F A) (= E J)))
                 (not (and (= D F) (= C E))))))
  (let ((a!5 (and (or (not (= N 1))
                      (not (Proc8 M L N K J Q I H G))
                      (and a!1 a!2))
                  a!4)))
    (=> (not (or (not Q) a!5)) (Proc12 M L N K J Q I D C)))))))
(assert (forall ((A Int)
         (B Int)
         (C Int)
         (D Int)
         (E Int)
         (F Int)
         (G Int)
         (H Int)
         (I Int)
         (J Int)
         (K Int)
         (L Int)
         (M Int)
         (N Int)
         (O Int)
         (P Int)
         (Q Bool)
         (R Int)
         (S Int)
         (T Int)
         (U Int)
         (V Int)
         (W Int)
         (X Int)
         (Y Int))
  (let ((a!1 (not (Proc14 R X W V S Q T 0)))
        (a!2 (and (not (<= O (+ 1 P))) (not (<= O R))))
        (a!3 (not (Proc10 O X W V S Q P 0 N M)))
        (a!4 (not (and (= I J) (= H K) (= G L))))
        (a!6 (not (and (not (= M 1)) (= L M) (= K N) (= J 0))))
        (a!8 (and (not (<= E (+ 1 F))) (not (<= E Y)))))
  (let ((a!5 (or (not (and (= M 1) (= L M) (= K N) (= J 0))) a!4))
        (a!9 (or (not (and (= C 1) (= L C) (= K D) (= J B))) a!4)))
  (let ((a!7 (or (= T X)
                 (not (and (= S U) (= R Y)))
                 a!1
                 (not (= P R))
                 (not a!2)
                 a!3
                 (and a!5 (or a!6 a!4))))
        (a!10 (or (= C 1)
                  (not (and (= S C) (= R D)))
                  a!1
                  (not (= P R))
                  (not a!2)
                  a!3
                  (and a!5 (or a!6 a!4)))))
  (let ((a!11 (and a!7
                   (or (not (= T X))
                       (not (= F Y))
                       (not a!8)
                       (not (Proc12 E X W V U Q F D C))
                       (and a!9 a!10)))))
  (let ((a!12 (not (or (not Q) (not (Proc13 Y X W V U Q)) (= T 0) a!11))))
    (=> a!12 (Proc15 Y X W V U Q A T I H G)))))))))
(assert (forall ((A Int)
         (B Int)
         (C Int)
         (D Int)
         (E Int)
         (F Int)
         (G Int)
         (H Int)
         (I Int)
         (J Int)
         (K Int)
         (L Int)
         (M Int)
         (N Int)
         (O Int)
         (P Int)
         (Q Bool)
         (R Int)
         (S Int)
         (T Int)
         (U Int)
         (V Int)
         (W Int)
         (X Int)
         (Y Int)
         (Z Int)
         (A1 Int)
         (B1 Int)
         (C1 Int)
         (D1 Int)
         (E1 Int)
         (F1 Int)
         (G1 Int)
         (H1 Int)
         (I1 Int)
         (J1 Int)
         (K1 Int)
         (L1 Int)
         (M1 Int)
         (N1 Int)
         (O1 Int)
         (P1 Int)
         (Q1 Int)
         (R1 Int)
         (S1 Int)
         (T1 Int)
         (U1 Int)
         (V1 Int)
         (W1 Int)
         (X1 Int)
         (Y1 Int)
         (Z1 Int)
         (A2 Int)
         (B2 Int)
         (C2 Int)
         (D2 Int)
         (E2 Int)
         (F2 Int)
         (G2 Int)
         (H2 Int)
         (I2 Int)
         (J2 Int))
  (let ((a!1 (and (not (<= H2 (+ 1 J2))) (not (<= H2 I2))))
        (a!2 (not (and (not (= A2 0)) (Proc17 H2 E2 D2 C2 B2 Q W1 16 V1 U1))))
        (a!3 (not (and (not (= A2 0)) (Proc18 U1 E2 D2 C2 B2 Q T1 S1 R1))))
        (a!4 (not (Proc14 N1 E2 D2 C2 O1 Q A2 0)))
        (a!5 (and (not (<= L1 (+ 1 M1))) (not (<= L1 N1))))
        (a!6 (not (Proc11 L1 E2 D2 C2 O1 Q M1 P1 K1 J1)))
        (a!7 (not (and (= F1 H1) (= E1 G1) (= D1 I1))))
        (a!9 (not (and (not (= J1 1)) (= I1 J1) (= H1 P1) (= G1 K1))))
        (a!11 (and (not (<= B1 (+ 1 C1))) (not (<= B1 Q1))))
        (a!17 (not (and (not (= A2 0)) (Proc17 H2 E2 D2 C2 B2 Q W 16 V U)))))
  (let ((a!8 (or (not (and (= J1 1) (= I1 J1) (= H1 P1) (= G1 K1))) a!7))
        (a!12 (or (not (and (= Z 1) (= I1 Z) (= H1 Y) (= G1 A1))) a!7)))
  (let ((a!10 (or (= A2 E2)
                  (not (and (= O1 B2) (= N1 Q1)))
                  a!4
                  (not (= M1 N1))
                  (not a!5)
                  a!6
                  (and a!8 (or a!9 a!7))))
        (a!13 (or (= Z 1)
                  (not (and (= O1 Z) (= N1 A1)))
                  a!4
                  (not (= M1 N1))
                  (not a!5)
                  a!6
                  (and a!8 (or a!9 a!7)))))
  (let ((a!14 (and a!10
                   (or (not (= A2 E2))
                       (not (= C1 Q1))
                       (not a!11)
                       (not (Proc12 B1 E2 D2 C2 B2 Q C1 A1 Z))
                       (and a!12 a!13)))))
  (let ((a!15 (or (= V1 0) (= A2 0) a!3 (not (and (= Q1 R1) (= P1 0))) a!14))
        (a!16 (or (not (= V1 0))
                  (not (= X (- 1073741670)))
                  (not (and (= Q1 U1) (= P1 X)))
                  (= A2 0)
                  a!14))
        (a!18 (or (not (<= G2 X1)) (= A2 0) (not (and (= Q1 U) (= P1 0))) a!14))
        (a!19 (or (<= G2 X1) (= A2 0) (not (and (= Q1 U) (= P1 0))) a!14))
        (a!20 (or (not (= V 0))
                  (not (= T (- 1073741670)))
                  (not (and (= Q1 U) (= P1 T)))
                  (= A2 0)
                  a!14))
        (a!22 (or (not (<= G2 X1)) (= A2 0) (not (and (= Q1 H2) (= P1 0))) a!14))
        (a!23 (or (<= G2 X1) (= A2 0) (not (and (= Q1 H2) (= P1 0))) a!14))
        (a!24 (or (not (= R (- 1073741808)))
                  (not (and (= Q1 H2) (= P1 R)))
                  (= A2 0)
                  a!14))
        (a!25 (or (not (<= G2 X1)) (= A2 0) (not (and (= Q1 G) (= P1 0))) a!14))
        (a!26 (or (<= G2 X1) (= A2 0) (not (and (= Q1 G) (= P1 0))) a!14))
        (a!27 (or (not (= H 0))
                  (not (Proc3 G E2 D2 C2 B2 Q J))
                  (not (Proc1 G E2 D2 C2 B2 Q J))
                  (not (= F (- 1073741670)))
                  (not (and (= Q1 G) (= P1 F)))
                  (= A2 0)
                  a!14))
        (a!29 (or (not (= J 0))
                  (not (= E (- 1073741670)))
                  (not (and (= Q1 I) (= P1 E)))
                  (= A2 0)
                  a!14))
        (a!31 (or (not (= M 0))
                  (not (= D (- 1073741670)))
                  (not (Proc3 L E2 D2 C2 B2 Q O))
                  (not (Proc1 L E2 D2 C2 B2 Q O))
                  (not (and (= Q1 L) (= P1 D)))
                  (= A2 0)
                  a!14))
        (a!33 (or (not (= O 0))
                  (not (= C (- 1073741670)))
                  (not (and (= Q1 N) (= P1 C)))
                  (= A2 0)
                  a!14))
        (a!39 (or (not (= X1 0))
                  (not (= B (- 1073741811)))
                  (not (and (= Q1 H2) (= P1 B)))
                  (= A2 0)
                  a!14))
        (a!40 (or (not (= Y1 0))
                  (not (= B (- 1073741811)))
                  (not (and (= Q1 H2) (= P1 B)))
                  (= A2 0)
                  a!14)))
  (let ((a!21 (and (or (= V 0)
                       (not (Proc19 U E2 D2 C2 B2 Q V J2 X1))
                       (and a!18 a!19))
                   a!20))
        (a!28 (and (or (= H 0)
                       (not (Proc19 G E2 D2 C2 B2 Q H J2 X1))
                       (not (Proc3 G E2 D2 C2 B2 Q J))
                       (not (Proc1 G E2 D2 C2 B2 Q J))
                       (and a!25 a!26))
                   a!27)))
  (let ((a!30 (and (or (= J 0)
                       (not (Proc2 I E2 D2 C2 B2 Q J 1 1))
                       (not (Proc17 I E2 D2 C2 B2 Q J 16 H G))
                       a!28)
                   a!29)))
  (let ((a!32 (and (or (= M 0)
                       (not (Proc3 L E2 D2 C2 B2 Q O))
                       (not (Proc1 L E2 D2 C2 B2 Q O))
                       (not (Proc0 L E2 D2 C2 B2 Q K X1 0 1 0 J I))
                       a!30)
                   a!31)))
  (let ((a!34 (and (or (= O 0)
                       (not (Proc2 N E2 D2 C2 B2 Q O 1 0))
                       (not (Proc17 N E2 D2 C2 B2 Q O 16 M L))
                       a!32)
                   a!33)))
  (let ((a!35 (and a!24
                   (or (= Z1 0)
                       (= A2 0)
                       (not (Proc4 H2 E2 D2 C2 B2 Q P Y1 1))
                       (not (Proc0 H2 E2 D2 C2 B2 Q P Y1 0 1 0 O N))
                       a!34))))
  (let ((a!36 (and (or (= A2 0)
                       (not (Proc19 H2 E2 D2 C2 B2 Q S J2 X1))
                       (and a!22 a!23))
                   (or (= Z1 0) a!35))))
  (let ((a!37 (or (= Z1 0) (and (or (= A2 0) a!17 a!21) (or (= Z1 0) a!36)))))
  (let ((a!38 (or (= X1 0)
                  (= Z1 0)
                  (and (or (= A2 0) a!2 (and a!15 a!16)) a!37))))
  (let ((a!41 (or (not Q)
                  (not (= J2 I2))
                  (not a!1)
                  (not (= G2 (+ 1 F2)))
                  (not (Proc13 H2 E2 D2 C2 B2 Q))
                  (not (Proc16 H2 E2 D2 C2 B2 Q A2 Z1))
                  (= Z1 0)
                  (and (or (= Y1 0) (and a!38 a!39)) a!40))))
    (=> (not a!41) (Proc20 I2 E2 D2 C2 B2 Q A A2 F1 E1 D1))))))))))))))))))
(assert (forall ((A Int) (B Int) (C Int) (D Int) (E Int) (Q Bool))
  (=> Q (Proc21 E D C B A Q))))
(assert (forall ((A Int) (B Int) (C Int) (D Int) (E Int) (F Int) (G Int) (Q Bool))
  (let ((a!1 (not (or (not Q) (not (= G F))))))
    (=> a!1 (Proc22 E D C B A Q G)))))
(assert (forall ((A Int)
         (B Int)
         (C Int)
         (D Int)
         (E Int)
         (F Int)
         (G Int)
         (H Int)
         (I Int)
         (Q Bool))
  (let ((a!1 (or (not Q) (not (and (= I H) (= G 0) (= F 0))))))
    (=> (not a!1) (Proc23 E D C B A Q I G F)))))
(assert (forall ((A Int)
         (B Int)
         (C Int)
         (D Int)
         (E Int)
         (F Int)
         (G Int)
         (H Int)
         (I Int)
         (J Int)
         (K Int)
         (L Int)
         (M Int)
         (N Int)
         (O Int)
         (P Int)
         (Q Bool)
         (R Int)
         (S Int)
         (T Int)
         (U Int)
         (V Int)
         (W Int)
         (K2 Bool)
         (L2 Bool)
         (M2 Bool))
  (let ((a!1 (not (and (not (<= W 0)) (Proc24 W V U T S M2 R))))
        (a!2 (not (and (= G I)
                       (= F L)
                       (= E O)
                       (= D J)
                       (= C M)
                       (= K2 L2)
                       (= B K)))))
  (let ((a!3 (or (= J 0) (not (and (= I H) (not L2))) a!2))
        (a!4 (or (not (and (= J 0) (= Q M2))) (not (and (= I A) (= L2 Q))) a!2)))
  (let ((a!5 (and (or (= J 1) (and a!3 a!4)) (or (not (= J 1)) (and a!3 a!4)))))
  (let ((a!6 (not (or (not M2)
                      a!1
                      (not (Proc23 R V U T S M2 P O N))
                      (not (Proc22 R P O T N M2 M))
                      (not (Proc21 R P O M N M2))
                      (= M 0)
                      (not (Proc25 R P O M N M2 L K J))
                      a!5))))
    (=> a!6 (Proc26 W V U T S M2 G F E D C K2 B))))))))
(assert (forall ((A Int) (B Int) (C Int) (D Int) (E Int) (F Int) (Q Bool))
  (let ((a!1 (not (or (not Q) (not (= F 0))))))
    (=> a!1 (Proc27 E D C B A Q F)))))
(assert (forall ((A Int) (B Int) (C Int) (D Int) (E Int) (F Int) (Q Bool))
  (let ((a!1 (not (or (not Q) (not (= F 0))))))
    (=> a!1 (Proc28 E D C B A Q F)))))
(assert (forall ((A Int) (B Int) (C Int) (D Int) (E Int) (F Int) (Q Bool))
  (let ((a!1 (not (or (not Q) (not (= F 1))))))
    (=> a!1 (Proc29 E D C B A Q F)))))
(assert (forall ((A Int) (B Int) (C Int) (D Int) (E Int) (F Int) (Q Bool))
  (let ((a!1 (not (or (not Q) (not (= F 0))))))
    (=> a!1 (Proc30 E D C B A Q F)))))
(assert (forall ((A Int) (B Int) (C Int) (D Int) (E Int) (F Int) (Q Bool))
  (let ((a!1 (not (or (not Q) (not (= F 1))))))
    (=> a!1 (Proc31 E D C B A Q F)))))
(assert (forall ((A Int) (B Int) (C Int) (D Int) (E Int) (F Int) (Q Bool))
  (let ((a!1 (not (or (not Q) (not (= F 0))))))
    (=> a!1 (Proc32 E D C B A Q F)))))
(assert (forall ((A Int) (B Int) (C Int) (D Int) (E Int) (F Int) (Q Bool))
  (let ((a!1 (not (or (not Q) (not (= F 0))))))
    (=> a!1 (Proc33 E D C B A Q F)))))
(assert (forall ((A Int) (B Int) (C Int) (D Int) (E Int) (F Int) (Q Bool))
  (let ((a!1 (not (or (not Q) (not (= F 0))))))
    (=> a!1 (Proc34 E D C B A Q F)))))
(assert (forall ((A Int) (B Int) (C Int) (D Int) (E Int) (F Int) (Q Bool))
  (let ((a!1 (not (or (not Q) (not (= F 0))))))
    (=> a!1 (Proc35 E D C B A Q F)))))
(assert (forall ((A Int) (B Int) (C Int) (D Int) (E Int) (F Int) (Q Bool))
  (let ((a!1 (not (or (not Q) (not (= F 0))))))
    (=> a!1 (Proc36 E D C B A Q F)))))
(assert (forall ((A Int) (B Int) (C Int) (D Int) (E Int) (F Int) (Q Bool))
  (let ((a!1 (not (or (not Q) (not (= F 0))))))
    (=> a!1 (Proc37 E D C B A Q F)))))
(assert (forall ((A Int) (B Int) (C Int) (D Int) (E Int) (F Int) (G Int) (Q Bool))
  (let ((a!1 (or (not Q) (not (= G (- 1073741823))) (not (= F G)))))
    (=> (not a!1) (Proc38 E D C B A Q F)))))
(assert (forall ((A Int) (B Int) (C Int) (D Int) (E Int) (F Int) (G Int) (Q Bool))
  (=> Q (Proc14 G F E D C Q B A))))
(assert (forall ((A Int) (B Int) (C Int) (D Int) (E Int) (F Int) (Q Bool))
  (let ((a!1 (not (or (not Q) (not (= F 0))))))
    (=> a!1 (Proc39 E D C B A Q F)))))
(assert (forall ((A Int)
         (B Int)
         (C Int)
         (D Int)
         (E Int)
         (F Int)
         (G Int)
         (H Int)
         (Q Bool))
  (let ((a!1 (not (or (not Q) (= H 0) (not (= G F))))))
    (=> a!1 (Proc16 E D C B A Q H G)))))
(assert (forall ((A Int)
         (B Int)
         (C Int)
         (D Int)
         (E Int)
         (F Int)
         (G Int)
         (H Int)
         (I Int)
         (J Int)
         (Q Bool))
  (let ((a!1 (and (not (<= H (+ 1 J))) (not (<= H I)))))
  (let ((a!2 (or (not Q) (not (= J I)) (not a!1) (not (and (= G J) (= F H))))))
    (=> (not a!2) (Proc18 I E D C B Q A G F))))))
(assert (forall ((A Int)
         (B Int)
         (C Int)
         (D Int)
         (E Int)
         (F Int)
         (G Int)
         (H Int)
         (I Int)
         (J Int)
         (K Int)
         (L Int)
         (M Int)
         (Q Bool))
  (let ((a!1 (or (not (and (= M L) (= K 0))) (not (and (= J K) (= I M)))))
        (a!2 (and (not (<= G (+ 1 H))) (not (<= G L)))))
  (let ((a!3 (or (not (= H L))
                 (not a!2)
                 (not (and (= M G) (= K H)))
                 (not (and (= J K) (= I M))))))
    (=> (not (or (not Q) (and a!1 a!3))) (Proc17 L F E D C Q B A J I))))))
(assert (forall ((A Int)
         (B Int)
         (C Int)
         (D Int)
         (E Int)
         (F Int)
         (G Int)
         (H Int)
         (Q Bool))
  (=> Q (Proc19 H G F E D Q C B A))))
(assert (forall ((A Int)
         (B Int)
         (C Int)
         (D Int)
         (E Int)
         (F Int)
         (G Int)
         (H Int)
         (I Int)
         (J Int)
         (K Int)
         (L Int)
         (M Int)
         (N Int)
         (O Int)
         (P Int)
         (Q Bool)
         (R Int)
         (S Int)
         (T Int)
         (U Int)
         (V Int)
         (W Int)
         (X Int)
         (Y Int)
         (Z Int)
         (A1 Int)
         (B1 Int)
         (C1 Int)
         (D1 Int)
         (E1 Int)
         (F1 Int)
         (G1 Int)
         (H1 Int)
         (I1 Int)
         (J1 Int)
         (K1 Int)
         (L1 Int)
         (M1 Int)
         (N1 Int)
         (O1 Int)
         (P1 Int)
         (Q1 Int)
         (R1 Int))
  (let ((a!1 (not (and (= C1 F1) (= B1 G1) (= A1 D1))))
        (a!3 (not (and (not (= H1 1)) (= Z J1) (= Y I1) (= X H1))))
        (a!4 (not (Proc42 Y P1 O1 N1 X Q Z R1)))
        (a!7 (not (and (not (= U 1)) (= Z W) (= Y V) (= X U))))
        (a!16 (not (and (not (= K 1)) (= Z M) (= Y L) (= X K)))))
  (let ((a!2 (or (not (and (= H1 1) (= G1 I1) (= F1 E1) (= D1 H1))) a!1))
        (a!5 (or a!3
                 a!4
                 (= R1 0)
                 (not (= G1 Y))
                 (not (and (= F1 Z) (= D1 X)))
                 a!1))
        (a!6 (or (not (and (= U 1) (= G1 V) (= F1 E1) (= D1 U))) a!1))
        (a!8 (or a!7
                 a!4
                 (= R1 0)
                 (not (= G1 Y))
                 (not (and (= F1 Z) (= D1 X)))
                 a!1))
        (a!9 (or (= L1 0)
                 (not (Proc38 Q1 P1 O1 N1 M1 Q T))
                 (not (= Z T))
                 (not (and (= Y Q1) (= X M1)))
                 a!4
                 (= R1 0)
                 (not (= G1 Y))
                 (not (and (= F1 Z) (= D1 X)))
                 a!1))
        (a!10 (or (= L1 0)
                  (not (Proc38 Q1 P1 O1 N1 M1 Q S))
                  (not (= Z S))
                  (not (and (= Y Q1) (= X M1)))
                  a!4
                  (= R1 0)
                  (not (= G1 Y))
                  (not (and (= F1 Z) (= D1 X)))
                  a!1))
        (a!11 (or (= L1 0)
                  (not (Proc38 Q1 P1 O1 N1 M1 Q R))
                  (not (= Z R))
                  (not (and (= Y Q1) (= X M1)))
                  a!4
                  (= R1 0)
                  (not (= G1 Y))
                  (not (and (= F1 Z) (= D1 X)))
                  a!1))
        (a!12 (or (= L1 0)
                  (not (Proc38 Q1 P1 O1 N1 M1 Q P))
                  (not (= Z P))
                  (not (and (= Y Q1) (= X M1)))
                  a!4
                  (= R1 0)
                  (not (= G1 Y))
                  (not (and (= F1 Z) (= D1 X)))
                  a!1))
        (a!13 (or (= L1 0)
                  (not (Proc38 Q1 P1 O1 N1 M1 Q O))
                  (not (= Z O))
                  (not (and (= Y Q1) (= X M1)))
                  a!4
                  (= R1 0)
                  (not (= G1 Y))
                  (not (and (= F1 Z) (= D1 X)))
                  a!1))
        (a!14 (or (not (Proc38 Q1 P1 O1 N1 M1 Q N))
                  (not (= Z N))
                  (not (and (= Y Q1) (= X M1)))
                  a!4
                  (= R1 0)
                  (not (= G1 Y))
                  (not (and (= F1 Z) (= D1 X)))
                  a!1))
        (a!15 (or (not (and (= K 1) (= G1 L) (= F1 E1) (= D1 K))) a!1))
        (a!17 (or a!16
                  a!4
                  (= R1 0)
                  (not (= G1 Y))
                  (not (and (= F1 Z) (= D1 X)))
                  a!1))
        (a!18 (or (= L1 0)
                  (not (Proc38 Q1 P1 O1 N1 M1 Q J))
                  (not (= Z J))
                  (not (and (= Y Q1) (= X M1)))
                  a!4
                  (= R1 0)
                  (not (= G1 Y))
                  (not (and (= F1 Z) (= D1 X)))
                  a!1))
        (a!19 (or (= L1 0)
                  (not (Proc38 Q1 P1 O1 N1 M1 Q I))
                  (not (= Z I))
                  (not (and (= Y Q1) (= X M1)))
                  a!4
                  (= R1 0)
                  (not (= G1 Y))
                  (not (and (= F1 Z) (= D1 X)))
                  a!1))
        (a!20 (or (not (Proc38 Q1 P1 O1 N1 M1 Q H))
                  (not (= Z H))
                  (not (and (= Y Q1) (= X M1)))
                  a!4
                  (= R1 0)
                  (not (= G1 Y))
                  (not (and (= F1 Z) (= D1 X)))
                  a!1))
        (a!21 (or (= L1 0)
                  (not (Proc38 Q1 P1 O1 N1 M1 Q G))
                  (not (= Z G))
                  (not (and (= Y Q1) (= X M1)))
                  a!4
                  (= R1 0)
                  (not (= G1 Y))
                  (not (and (= F1 Z) (= D1 X)))
                  a!1))
        (a!22 (or (= L1 0)
                  (not (Proc38 Q1 P1 O1 N1 M1 Q F))
                  (not (= Z F))
                  (not (and (= Y Q1) (= X M1)))
                  a!4
                  (= R1 0)
                  (not (= G1 Y))
                  (not (and (= F1 Z) (= D1 X)))
                  a!1))
        (a!23 (or (= L1 0)
                  (not (Proc38 Q1 P1 O1 N1 M1 Q E))
                  (not (= Z E))
                  (not (and (= Y Q1) (= X M1)))
                  a!4
                  (= R1 0)
                  (not (= G1 Y))
                  (not (and (= F1 Z) (= D1 X)))
                  a!1))
        (a!24 (or (not (Proc38 Q1 P1 O1 N1 M1 Q D))
                  (not (= Z D))
                  (not (and (= Y Q1) (= X M1)))
                  a!4
                  (= R1 0)
                  (not (= G1 Y))
                  (not (and (= F1 Z) (= D1 X)))
                  a!1))
        (a!25 (or (= L1 0)
                  (not (Proc38 Q1 P1 O1 N1 M1 Q C))
                  (not (= Z C))
                  (not (and (= Y Q1) (= X M1)))
                  a!4
                  (= R1 0)
                  (not (= G1 Y))
                  (not (and (= F1 Z) (= D1 X)))
                  a!1))
        (a!26 (or (not (= B 1))
                  (= B 0)
                  (= L1 0)
                  (not (Proc38 Q1 P1 O1 N1 M1 Q C))
                  (not (= Z C))
                  (not (and (= Y Q1) (= X M1)))
                  a!4
                  (= R1 0)
                  (not (= G1 Y))
                  (not (and (= F1 Z) (= D1 X)))
                  a!1)))
  (let ((a!27 (and (or (= L1 0) (and a!25 a!26))
                   (or (not (= A 1)) (= A 0) (= L1 0) (and a!25 a!26)))))
  (let ((a!28 (and (or (= L1 0)
                       (not (Proc15 Q1 P1 O1 N1 M1 Q K1 R1 J1 I1 H1))
                       (and a!2 a!5))
                   (or (= L1 0)
                       (not (Proc15 Q1 P1 O1 N1 M1 Q K1 R1 W V U))
                       (and a!6 a!8))
                   a!9
                   a!10
                   a!11
                   a!12
                   a!13
                   a!14
                   (or (= L1 0)
                       (not (Proc20 Q1 P1 O1 N1 M1 Q K1 R1 M L K))
                       (and a!15 a!17))
                   a!18
                   a!19
                   a!20
                   a!21
                   a!22
                   a!23
                   a!24
                   (or (= L1 0) a!27))))
  (let ((a!29 (not (or (not Q)
                       (= R1 0)
                       (not (Proc40 Q1 P1 O1 N1 M1 Q R1))
                       (= L1 0)
                       (not (Proc41 Q1 P1 O1 N1 M1 Q))
                       a!28))))
    (=> a!29 (Proc43 Q1 P1 O1 N1 M1 Q K1 R1 C1 B1 A1)))))))))
(assert (forall ((A Int) (B Int) (C Int) (D Int) (E Int) (F Int) (Q Bool))
  (=> (not (or (not Q) (= F 0))) (Proc40 E D C B A Q F))))
(assert (forall ((A Int) (B Int) (C Int) (D Int) (E Int) (Q Bool))
  (=> Q (Proc13 E D C B A Q))))
(assert (forall ((A Int)
         (B Int)
         (C Int)
         (D Int)
         (E Int)
         (F Int)
         (G Int)
         (H Int)
         (I Int)
         (J Int)
         (K Int)
         (L Int)
         (M Int)
         (N Int)
         (O Int)
         (P Int)
         (Q Bool)
         (R Int)
         (S Int)
         (T Int)
         (U Int)
         (V Int)
         (W Int)
         (X Int)
         (Y Int)
         (Z Int)
         (A1 Int))
  (let ((a!1 (not (and (= H A1) (= G J) (= F I)))))
  (let ((a!2 (or (not (and (= J Z) (= I X))) a!1))
        (a!3 (or (not (= B 1)) (not (and (= J C) (= I B))) a!1))
        (a!4 (or (= B 1) (not (and (= J C) (= I B))) a!1))
        (a!5 (or (not (= W 0)) (not (and (= J Z) (= I X))) a!1)))
  (let ((a!6 (and a!2
                  (or (= W 0)
                      (not (Proc44 Z A1 Y A1 X Q))
                      (not (Proc43 Z A1 Y A1 X Q E A1 D C B))
                      (and a!3 a!4))
                  a!5)))
  (let ((a!7 (not (or (not Q)
                      (= A1 0)
                      (not (Proc29 Z A1 Y A1 X Q W))
                      (not (Proc36 Z A1 Y A1 X Q V))
                      (not (Proc30 Z A1 Y A1 X Q U))
                      (not (Proc35 Z A1 Y A1 X Q T))
                      (not (Proc28 Z A1 Y A1 X Q S))
                      (not (Proc32 Z A1 Y A1 X Q R))
                      (not (Proc39 Z A1 Y A1 X Q P))
                      (not (Proc37 Z A1 Y A1 X Q O))
                      (not (Proc27 Z A1 Y A1 X Q N))
                      (not (Proc33 Z A1 Y A1 X Q M))
                      (not (Proc34 Z A1 Y A1 X Q L))
                      (not (Proc31 Z A1 Y A1 X Q K))
                      a!6))))
    (=> a!7 (Proc25 Z A Y A1 X Q H G F))))))))
(assert (forall ((A Int) (B Int) (C Int) (D Int) (E Int) (Q Bool))
  (=> Q (Proc41 E D C B A Q))))
(assert (forall ((A Int) (B Int) (C Int) (D Int) (E Int) (F Int) (G Int) (Q Bool))
  (=> Q (Proc42 G F E D C Q B A))))
(assert (forall ((A Int) (B Int) (C Int) (D Int) (E Int) (Q Bool))
  (=> Q (Proc44 E D C B A Q))))
(assert (forall ((A Int)
         (B Int)
         (C Int)
         (D Int)
         (E Int)
         (F Int)
         (G Int)
         (H Int)
         (I Int)
         (J Int)
         (K Int)
         (L Int)
         (M Int)
         (N Int)
         (O Int)
         (P Int)
         (Q Bool)
         (R Int)
         (S Int)
         (T Int)
         (U Int)
         (V Int)
         (W Int)
         (X Int)
         (Y Int)
         (Z Int)
         (A1 Int)
         (B1 Int)
         (C1 Int)
         (D1 Int)
         (E1 Int)
         (F1 Int)
         (G1 Int)
         (H1 Int)
         (I1 Int)
         (J1 Int)
         (K1 Int)
         (L1 Int)
         (M1 Int)
         (N1 Int)
         (O1 Int)
         (P1 Int)
         (Q1 Int)
         (R1 Int)
         (S1 Int)
         (T1 Int)
         (U1 Int)
         (V1 Int)
         (W1 Int)
         (X1 Int)
         (Y1 Int)
         (Z1 Int)
         (A2 Int)
         (B2 Int)
         (C2 Int))
  (let ((a!1 (and (= C2 B2)
                  (not (<= A2 (+ 240 C2)))
                  (not (<= A2 B2))
                  (= Z1 A2)
                  (not (<= Y1 (+ 4 Z1)))
                  (not (<= Y1 A2))
                  (= X1 Y1)
                  (not (<= W1 (+ 332 X1)))))
        (a!2 (and (not (<= W1 Y1))
                  (= V1 W1)
                  (not (<= U1 (+ 4 V1)))
                  (not (<= U1 W1))
                  (= T1 U1)
                  (not (<= S1 (+ 536 T1)))
                  (not (<= S1 U1))
                  (= R1 S1)
                  (not (<= Q1 (+ 240 R1)))
                  (not (<= Q1 S1))
                  (= P1 Q1)
                  (not (<= O1 (+ 240 P1)))
                  (not (<= O1 Q1))
                  (= N1 O1)
                  (not (<= M1 (+ 240 N1)))
                  (not (<= M1 O1))
                  (= L1 M1)
                  (not (<= K1 (+ 4 L1)))
                  (not (<= K1 M1))
                  (= J1 K1)
                  (not (<= I1 (+ 536 J1)))
                  (not (<= I1 K1))
                  (= H1 I1)
                  (not (<= G1 (+ 332 H1)))
                  (not (<= G1 I1))
                  (= F1 G1)
                  (not (<= E1 (+ 240 F1)))
                  (not (<= E1 G1))
                  (= D1 E1)
                  (not (<= C1 (+ 240 D1)))
                  (not (<= C1 E1))
                  (= B1 C1)
                  (not (<= A1 (+ 332 B1)))
                  (not (<= A1 C1))
                  (= Z A1)
                  (not (<= Y (+ 4 Z)))
                  (not (<= Y A1))
                  (= X Y)
                  (not (<= W (+ 240 X)))
                  (not (<= W Y))
                  (= V W)
                  (not (<= U (+ 240 V)))
                  (not (<= U W))
                  (= T U)
                  (not (<= S (+ 240 T)))
                  (not (<= S U))
                  (= R S)
                  (not (<= P (+ 240 R)))
                  (not (<= P S))
                  (= O P)
                  (not (<= N (+ 240 O)))
                  (not (<= N P))
                  (= M N)
                  (not (<= L (+ 40 M)))
                  (not (<= L N))
                  (= K L)
                  (not (<= J (+ 332 K)))
                  (not (<= J L))
                  (= I J)
                  (not (<= H (+ 4 I)))
                  (not (<= H J))
                  (= G H)
                  (not (<= F (+ 40 G)))
                  (not (<= F H)))))
  (let ((a!3 (not (or (not Q) (not a!1) (not a!2) (not (= E F))))))
    (=> a!3 (Proc24 B2 D C B A Q E))))))
(assert (forall ((A Int)
         (B Int)
         (C Int)
         (D Int)
         (E Int)
         (F Int)
         (G Int)
         (H Int)
         (I Int)
         (J Int)
         (K Int)
         (L Int)
         (M Int)
         (N Int)
         (O Int)
         (P Int)
         (Q Bool)
         (R Int)
         (K2 Bool)
         (L2 Bool))
  (let ((a!1 (or (not L2)
                 (not (and (Proc26 R P O N M true L K J I H K2 G) (not K2))))))
    (=> (not a!1) (Proc45 R P O N M L2 F Q E D C B A)))))
(assert (let ((a!1 (exists ((V0 Int)
                    (V1 Int)
                    (V2 Int)
                    (V3 Int)
                    (V4 Int)
                    (V5 Bool)
                    (V6 Int)
                    (V7 Bool)
                    (V8 Int)
                    (V9 Int)
                    (V10 Int)
                    (V11 Int)
                    (V12 Int))
             (not (=> (and (Proc45 V0 V1 V2 V3 V4 V5 V6 V7 V8 V9 V10 V11 V12)
                           (not false))
                      false)))))
  (not a!1)))

(check-sat)
